(declare-const in Int)

(assert (and (and (and (and (and (and (and (and (and (and  ( >=  in 0)  ( <=  in 10))  ( >  in 1))  ( >  ( -  in 1) 1))  ( >  ( -  ( -  in 1) 1) 1))  ( >  ( -  ( -  ( -  in 1) 1) 1) 1))  ( >  ( -  ( -  ( -  ( -  in 1) 1) 1) 1) 1))  ( >  ( -  ( -  ( -  ( -  ( -  in 1) 1) 1) 1) 1) 1))  ( >  ( -  ( -  ( -  ( -  ( -  ( -  in 1) 1) 1) 1) 1) 1) 1))  ( >  ( -  ( -  ( -  ( -  ( -  ( -  ( -  in 1) 1) 1) 1) 1) 1) 1) 1))  ( >  ( -  ( -  ( -  ( -  ( -  ( -  ( -  ( -  in 1) 1) 1) 1) 1) 1) 1) 1) 1)))

(check-sat)
(get-model)